<number of tasks>
28

<cycle time>
216

<task times>
1 70
2 59
3 33
4 6
5 1
6 27
7 17
8 62
9 31
10 53
11 21
12 19
13 108
14 52
15 5
16 8
17 97
18 8
19 47
20 67
21 17
22 8
23 3
24 21
25 107
26 3
27 2
28 72

<precedence relations>
1,2
1,3
1,4
1,5
1,8
1,19
1,21
1,22
1,23
1,24
1,26
2,6
2,17
3,28
4,28
5,28
6,7
7,18
8,9
9,10
10,11
10,12
11,15
12,13
13,14
13,16
14,28
15,28
16,28
17,28
18,28
19,20
20,28
21,28
22,28
23,28
24,25
25,28
26,27
27,28

<setup times forward>
1,3:2
1,4:3
1,19:7
1,21:3
1,22:3
1,23:2
2,3:2
2,4:3
2,6:7
2,9:7
2,10:7
2,11:7
2,12:7
2,13:3
2,14:3
2,15:3
2,16:3
2,17:3
2,19:7
2,20:3
2,21:3
2,22:3
2,23:2
2,25:2
2,27:3
3,2:2
3,4:1
3,5:2
3,6:5
3,7:5
3,8:2
3,9:5
3,10:5
3,11:5
3,12:5
3,13:5
3,14:1
3,15:1
3,16:1
3,17:5
3,18:1
3,19:5
3,20:1
3,21:1
3,22:5
3,24:2
3,26:2
3,27:5
4,2:3
4,3:1
4,5:3
4,6:4
4,7:4
4,8:3
4,9:4
4,10:4
4,11:4
4,12:4
4,13:6
4,17:6
4,19:4
4,22:6
4,23:1
4,24:3
4,25:1
4,26:3
4,27:6
4,28:1
5,3:2
5,4:3
5,6:7
5,7:7
5,9:7
5,10:7
5,11:7
5,12:7
5,13:3
5,14:3
5,15:3
5,16:3
5,17:3
5,18:3
5,19:7
5,20:3
5,21:3
5,22:3
5,23:2
5,25:2
5,27:3
5,28:2
6,3:5
6,4:4
6,5:7
6,8:7
6,13:10
6,14:4
6,15:4
6,16:4
6,17:10
6,20:4
6,21:4
6,22:10
6,23:5
6,24:7
6,25:5
6,26:7
6,27:10
7,3:5
7,4:4
7,5:7
7,8:7
7,13:10
7,14:4
7,15:4
7,16:4
7,17:10
7,18:4
7,20:4
7,21:4
7,22:10
7,23:5
7,24:7
7,25:5
7,26:7
7,27:10
8,3:2
8,4:3
8,6:7
8,7:7
8,9:7
8,17:3
8,18:3
8,19:7
8,20:3
8,21:3
8,22:3
8,23:2
8,25:2
8,27:3
9,2:7
9,3:5
9,4:4
9,5:7
9,17:10
9,18:4
9,20:4
9,21:4
9,22:10
9,23:5
9,24:7
9,25:5
9,26:7
9,27:10
10,2:7
10,3:5
10,4:4
10,5:7
10,17:10
10,18:4
10,20:4
10,21:4
10,22:10
10,23:5
10,24:7
10,25:5
10,26:7
10,27:10
11,2:7
11,3:5
11,4:4
11,5:7
11,13:10
11,14:4
11,15:4
11,16:4
11,17:10
11,18:4
11,20:4
11,21:4
11,22:10
11,23:5
11,24:7
11,25:5
11,26:7
11,27:10
12,2:7
12,3:5
12,4:4
12,5:7
12,13:10
12,15:4
12,17:10
12,18:4
12,20:4
12,21:4
12,22:10
12,23:5
12,24:7
12,25:5
12,26:7
12,27:10
13,2:3
13,3:5
13,4:6
13,5:3
13,6:10
13,7:10
13,11:10
13,14:6
13,15:6
13,16:6
13,18:6
13,19:10
13,20:6
13,21:6
13,23:5
13,24:3
13,25:5
13,26:3
14,2:3
14,3:1
14,5:3
14,6:4
14,7:4
14,11:4
14,17:6
14,19:4
14,22:6
14,23:1
14,24:3
14,25:1
14,26:3
14,27:6
14,28:1
15,2:3
15,3:1
15,5:3
15,6:4
15,7:4
15,12:4
15,13:6
15,17:6
15,19:4
15,22:6
15,23:1
15,24:3
15,25:1
15,26:3
15,27:6
15,28:1
16,2:3
16,3:1
16,5:3
16,6:4
16,7:4
16,11:4
16,17:6
16,19:4
16,22:6
16,23:1
16,24:3
16,25:1
16,26:3
16,27:6
16,28:1
17,3:5
17,4:6
17,5:3
17,6:10
17,7:10
17,8:3
17,9:10
17,10:10
17,11:10
17,12:10
17,14:6
17,15:6
17,16:6
17,18:6
17,19:10
17,20:6
17,21:6
17,23:5
17,24:3
17,25:5
17,26:3
17,28:5
18,3:1
18,5:3
18,8:3
18,9:4
18,10:4
18,11:4
18,12:4
18,13:6
18,17:6
18,19:4
18,22:6
18,23:1
18,24:3
18,25:1
18,26:3
18,27:6
18,28:1
19,2:7
19,3:5
19,4:4
19,5:7
19,8:7
19,13:10
19,14:4
19,15:4
19,16:4
19,17:10
19,18:4
19,20:4
19,21:4
19,22:10
19,23:5
19,24:7
19,25:5
19,26:7
19,27:10
20,2:3
20,3:1
20,5:3
20,6:4
20,7:4
20,8:3
20,9:4
20,10:4
20,11:4
20,12:4
20,13:6
20,17:6
20,22:6
20,23:1
20,24:3
20,25:1
20,26:3
20,27:6
20,28:1
21,2:3
21,3:1
21,5:3
21,6:4
21,7:4
21,8:3
21,9:4
21,10:4
21,11:4
21,12:4
21,13:6
21,17:6
21,19:4
21,22:6
21,23:1
21,24:3
21,25:1
21,26:3
21,27:6
21,28:1
22,2:3
22,3:5
22,4:6
22,5:3
22,6:10
22,7:10
22,8:3
22,9:10
22,10:10
22,11:10
22,12:10
22,14:6
22,15:6
22,16:6
22,18:6
22,19:10
22,20:6
22,21:6
22,23:5
22,24:3
22,25:5
22,26:3
22,28:5
23,2:2
23,4:1
23,5:2
23,6:5
23,7:5
23,8:2
23,9:5
23,10:5
23,11:5
23,12:5
23,13:5
23,14:1
23,15:1
23,16:1
23,17:5
23,18:1
23,19:5
23,20:1
23,21:1
23,22:5
23,24:2
23,26:2
23,27:5
24,3:2
24,4:3
24,6:7
24,7:7
24,9:7
24,10:7
24,11:7
24,12:7
24,13:3
24,14:3
24,15:3
24,16:3
24,17:3
24,18:3
24,19:7
24,20:3
24,21:3
24,22:3
24,23:2
24,25:2
24,27:3
25,2:2
25,4:1
25,5:2
25,6:5
25,7:5
25,8:2
25,9:5
25,10:5
25,11:5
25,12:5
25,13:5
25,14:1
25,15:1
25,16:1
25,17:5
25,18:1
25,19:5
25,20:1
25,21:1
25,22:5
25,26:2
25,27:5
26,3:2
26,4:3
26,6:7
26,7:7
26,9:7
26,10:7
26,11:7
26,12:7
26,13:3
26,14:3
26,15:3
26,16:3
26,17:3
26,18:3
26,19:7
26,20:3
26,21:3
26,22:3
26,23:2
26,25:2
26,27:3
27,2:3
27,3:5
27,4:6
27,5:3
27,6:10
27,7:10
27,8:3
27,9:10
27,10:10
27,11:10
27,12:10
27,14:6
27,15:6
27,16:6
27,18:6
27,19:10
27,20:6
27,21:6
27,23:5
27,24:3
27,25:5
27,28:5

<setup times backward>
2,13:3
2,22:3
2,27:3
3,1:2
3,2:2
3,5:2
3,8:2
3,13:5
3,17:5
3,22:5
3,24:2
3,26:2
3,27:5
4,1:3
4,2:3
4,3:1
4,5:3
4,8:3
4,13:6
4,17:6
4,22:6
4,23:1
4,24:3
4,25:1
4,26:3
4,27:6
5,13:3
5,17:3
5,22:3
5,27:3
6,1:7
6,2:7
6,3:5
6,4:4
6,5:7
6,8:7
6,13:10
6,14:4
6,15:4
6,16:4
6,17:10
6,20:4
6,21:4
6,22:10
6,23:5
6,24:7
6,25:5
6,26:7
6,27:10
7,1:7
7,2:7
7,3:5
7,4:4
7,5:7
7,8:7
7,13:10
7,14:4
7,15:4
7,16:4
7,17:10
7,20:4
7,21:4
7,22:10
7,23:5
7,24:7
7,25:5
7,26:7
7,27:10
8,17:3
8,22:3
8,27:3
9,1:7
9,2:7
9,3:5
9,4:4
9,5:7
9,8:7
9,17:10
9,18:4
9,20:4
9,21:4
9,22:10
9,23:5
9,24:7
9,25:5
9,26:7
9,27:10
10,1:7
10,2:7
10,3:5
10,4:4
10,5:7
10,8:7
10,17:10
10,18:4
10,20:4
10,21:4
10,22:10
10,23:5
10,24:7
10,25:5
10,26:7
10,27:10
11,1:7
11,2:7
11,3:5
11,4:4
11,5:7
11,8:7
11,13:10
11,14:4
11,16:4
11,17:10
11,18:4
11,20:4
11,21:4
11,22:10
11,23:5
11,24:7
11,25:5
11,26:7
11,27:10
12,1:7
12,2:7
12,3:5
12,4:4
12,5:7
12,8:7
12,15:4
12,17:10
12,18:4
12,20:4
12,21:4
12,22:10
12,23:5
12,24:7
12,25:5
12,26:7
12,27:10
14,1:3
14,2:3
14,3:1
14,5:3
14,8:3
14,13:6
14,17:6
14,22:6
14,23:1
14,24:3
14,25:1
14,26:3
14,27:6
15,1:3
15,2:3
15,3:1
15,5:3
15,8:3
15,13:6
15,17:6
15,22:6
15,23:1
15,24:3
15,25:1
15,26:3
15,27:6
16,1:3
16,2:3
16,3:1
16,5:3
16,8:3
16,13:6
16,17:6
16,22:6
16,23:1
16,24:3
16,25:1
16,26:3
16,27:6
18,1:3
18,2:3
18,3:1
18,5:3
18,8:3
18,13:6
18,17:6
18,22:6
18,23:1
18,24:3
18,25:1
18,26:3
18,27:6
19,1:7
19,2:7
19,3:5
19,4:4
19,5:7
19,8:7
19,13:10
19,14:4
19,15:4
19,16:4
19,17:10
19,18:4
19,21:4
19,22:10
19,23:5
19,24:7
19,25:5
19,26:7
19,27:10
20,1:3
20,2:3
20,3:1
20,5:3
20,8:3
20,13:6
20,17:6
20,22:6
20,23:1
20,24:3
20,25:1
20,26:3
20,27:6
21,1:3
21,2:3
21,3:1
21,5:3
21,8:3
21,13:6
21,17:6
21,22:6
21,23:1
21,24:3
21,25:1
21,26:3
21,27:6
23,1:2
23,2:2
23,5:2
23,8:2
23,13:5
23,17:5
23,22:5
23,24:2
23,26:2
23,27:5
24,13:3
24,17:3
24,22:3
24,27:3
25,1:2
25,2:2
25,5:2
25,8:2
25,13:5
25,17:5
25,22:5
25,24:2
25,26:2
25,27:5
26,13:3
26,17:3
26,22:3
28,1:2
28,2:2
28,5:2
28,8:2
28,13:5
28,17:5
28,22:5
28,24:2
28,26:2
28,27:5

<end>

<optimal SALBP-1 value>
5


<rand seed>
467321153

<Lower Bounds>
Lm1=5
Lms1=5
Lm2=1
Lm3=2
Lm4=5
Best=5

<Optimal Stations (Iterations: 10)>
6
